GLPSOL--GLPK LP/MIP Solver 5.0
Parameter(s) specified in the command line:
 --lp ../modeles/10_34.lp --log 10_34.log
Reading problem data from '../modeles/10_34.lp'...
381 rows, 700 columns, 2410 non-zeros
340 integer variables, all of which are binary
1097 lines were read
GLPK Integer Optimizer 5.0
381 rows, 700 columns, 2410 non-zeros
340 integer variables, all of which are binary
Preprocessing...
340 constraint coefficient(s) were reduced
381 rows, 690 columns, 2400 non-zeros
340 integer variables, all of which are binary
Scaling...
 A: min|aij| =  1.384e-02  max|aij| =  4.000e+00  ratio =  2.890e+02
GM: min|aij| =  2.425e-01  max|aij| =  4.123e+00  ratio =  1.700e+01
EQ: min|aij| =  5.882e-02  max|aij| =  1.000e+00  ratio =  1.700e+01
2N: min|aij| =  5.536e-02  max|aij| =  1.710e+00  ratio =  3.089e+01
Constructing initial basis...
Size of triangular part is 381
Solving LP relaxation...
GLPK Simplex Optimizer 5.0
381 rows, 690 columns, 2400 non-zeros
      0: obj =   2.000000000e+01 inf =   4.950e+01 (21)
     69: obj =  -1.405759162e+00 inf =   0.000e+00 (0)
*   182: obj =  -3.111764706e+00 inf =   2.898e-15 (0)
OPTIMAL LP SOLUTION FOUND
Integer optimization begins...
Long-step dual simplex will be used
+   182: mip =     not found yet >=              -inf        (1; 0)
+   232: >>>>>  -3.064705882e+00 >=  -3.111764706e+00   1.5% (16; 0)
+   233: >>>>>  -3.111764706e+00 >=  -3.111764706e+00 < 0.1% (9; 12)
+   233: mip =  -3.111764706e+00 >=     tree is empty   0.0% (0; 31)
INTEGER OPTIMAL SOLUTION FOUND
Time used:   0.0 secs
Memory used: 1.1 Mb (1120292 bytes)
